problems/csplib-prob015/SchursLemma-models/noch/O2/lingeling/model_1_3-4-13-solution000001.eprime-solution
language ESSENCE' 1.0

letting boxes_PartitionAsSet_ExplicitR5_ExplicitVarSizeWithMarker_Marker be [2, 3, 3, 5; int(1..4)]
letting boxes_PartitionAsSet_ExplicitR5_ExplicitVarSizeWithMarker_Values be
        [[1, 3, 1, 1, 1, 1, 1, 1, 1, 1, 1, 1, 1; int(1..13)], [2, 6, 11, 1, 1, 1, 1, 1, 1, 1, 1, 1, 1; int(1..13)],
         [5, 12, 13, 1, 1, 1, 1, 1, 1, 1, 1, 1, 1; int(1..13)],
         [4, 7, 8, 9, 10, 1, 1, 1, 1, 1, 1, 1, 1; int(1..13)]; int(1..4)]
