problems/csplib-prob015/SchursLemma-models/noch/O2/lingeling/model_1_3-4-13-solution000001.solution
language Essence 1.3

letting boxes be partition({1, 3}, {2, 6, 11}, {4, 7, 8, 9, 10}, {5, 12, 13})
